certificates/rado_a9_c266_N32.drat
-30 -31 -32 0
-31 -32 0
d -9 -31 -32 0
-32 0
10 0
30 31 0
31 0
-18 0
-23 0
28 0
1 0
29 0
-15 0
-14 0
-17 0
-24 0
-16 0
-26 0
-6 0
-5 0
30 0
2 0
4 0
27 0
0
